12847
188
278
12888
4224
2079
1074
3849
101
4195
155
4035
2798
2036
896
250
0
1676
19368
1910
4693
583
19562
7319
13164
4285
534
225
72
2476
0
3838
7401
7469
2365
65
2299
7965
226
7625
294
1022
8177
2224
362
2552
4539
4207
3962
942
54
1043
47
12832
669
4223
20071
7568
1816
4921
3859
197
4249
4204
634
200
1152
4423
383
4454
60
2067
7613
1968
50
2284
4667
277
7072
4502
8250
38
3882
7659
2049
7401
46473
19814
510
1297
1028
7290
13760
129
49
2212
2287
730
38
161
